benchmarks_vrp/CMT4/fixed_c/CMT4_4.vrp
NAME: CMT4_4
TYPE: CVRP
COMMENT: 1028.42 - Cluster Nr.4
DIMENSION: 12
CAPACITY: 200
EDGE_WEIGHT_TYPE: EUC_2D
NODE_COORD_TYPE: TWOD_COORDS
NODE_COORD_SECTION: 
12 6 68
3 17 63
8 5 64
10 15 77
5 35 35
9 8 56
11 2 60
1 8 52
6 13 52
7 15 60
4 16 57
2 20 65
DEPOT_SECTION: 
5
-1
DEMAND_SECTION: 
4 16
7 17
8 11
2 12
10 9
11 5
9 27
5 0
12 30
6 36
1 10
3 19
EOF
