benchmarks_vrp/CMT4/fixed_c/CMT4_4.tour
NAME: CMT4_4 solution
TYPE: TOUR
TOUR_SECTION:
5 4 7 3 2 10 12 8 11 9 1 6 -1
-1
EOF